p edge 823
e 0 1
e 0 3
e 0 4
e 0 5
e 0 228
e 0 462
e 0 464
e 0 513
e 1 5
e 1 225
e 1 238
e 1 239
e 1 431
e 1 462
e 2 224
e 2 340
e 2 341
e 2 463
e 2 513
e 3 4
e 3 464
e 4 464
e 6 198
e 6 199
e 6 327
e 6 329
e 6 363
e 6 587
e 6 785
e 7 221
e 7 323
e 7 324
e 7 336
e 8 34
e 8 35
e 8 220
e 8 222
e 8 281
e 8 321
e 9 10
e 9 136
e 9 138
e 9 270
e 9 293
e 9 474
e 10 52
e 10 56
e 10 137
e 10 138
e 10 163
e 10 780
e 11 13
e 11 14
e 11 16
e 11 57
e 11 89
e 11 165
e 11 166
e 11 237
e 11 269
e 11 747
e 12 13
e 12 14
e 12 15
e 12 58
e 12 268
e 13 14
e 13 57
e 13 268
e 13 269
e 14 747
e 15 53
e 15 54
e 15 161
e 15 342
e 15 357
e 15 361
e 15 534
e 15 747
e 16 32
e 16 80
e 16 89
e 16 162
e 16 166
e 16 237
e 17 18
e 17 114
e 17 115
e 17 263
e 17 441
e 17 749
e 18 106
e 18 108
e 18 110
e 18 441
e 18 751
e 19 623
e 19 624
e 19 799
e 19 801
e 19 802
e 19 804
e 19 805
e 19 806
e 20 479
e 20 624
e 20 666
e 20 796
e 20 798
e 20 814
e 21 136
e 21 666
e 21 796
e 21 807
e 21 815
e 22 136
e 22 623
e 22 795
e 22 797
e 22 799
e 22 802
e 22 815
e 23 26
e 23 27
e 23 48
e 23 391
e 23 503
e 23 695
e 24 391
e 24 394
e 24 395
e 24 398
e 24 753
e 25 27
e 25 388
e 25 390
e 25 392
e 25 399
e 25 644
e 25 754
e 26 391
e 26 394
e 26 396
e 26 503
e 27 388
e 27 391
e 27 486
e 27 487
e 27 695
e 27 753
e 27 754
e 28 36
e 28 43
e 28 105
e 28 609
e 28 611
e 28 612
e 28 614
e 28 615
e 28 616
e 29 30
e 29 31
e 29 216
e 29 298
e 29 720
e 29 721
e 30 215
e 30 216
e 30 386
e 30 645
e 30 720
e 30 761
e 31 216
e 31 276
e 31 277
e 31 298
e 31 706
e 31 813
e 32 80
e 32 145
e 32 162
e 32 682
e 33 60
e 33 569
e 33 664
e 33 667
e 33 668
e 34 35
e 34 280
e 34 288
e 34 321
e 35 222
e 35 288
e 35 292
e 35 748
e 36 42
e 36 43
e 37 498
e 37 664
e 37 668
e 37 734
e 38 39
e 38 40
e 38 41
e 38 619
e 38 620
e 39 40
e 39 303
e 39 530
e 39 531
e 39 617
e 39 619
e 40 617
e 40 620
e 41 532
e 41 618
e 41 619
e 41 620
e 42 43
e 42 253
e 42 609
e 42 615
e 43 44
e 43 105
e 43 248
e 44 105
e 44 217
e 44 247
e 44 248
e 44 250
e 44 525
e 45 157
e 45 240
e 45 243
e 46 47
e 46 49
e 46 340
e 46 341
e 47 48
e 47 49
e 47 341
e 47 692
e 48 341
e 48 503
e 48 692
e 48 695
e 49 340
e 49 402
e 49 405
e 49 463
e 49 692
e 50 301
e 50 302
e 50 781
e 51 109
e 51 110
e 51 160
e 51 161
e 51 357
e 52 55
e 52 56
e 52 163
e 52 165
e 52 268
e 53 54
e 53 56
e 53 58
e 53 137
e 54 137
e 54 535
e 55 57
e 55 165
e 55 268
e 56 58
e 56 137
e 56 268
e 57 165
e 57 268
e 57 269
e 58 268
e 59 76
e 59 684
e 59 688
e 59 742
e 59 743
e 60 320
e 60 664
e 60 667
e 60 677
e 60 742
e 61 74
e 61 75
e 61 569
e 61 668
e 61 689
e 62 63
e 62 417
e 62 418
e 62 419
e 62 432
e 63 419
e 63 432
e 64 65
e 64 68
e 64 300
e 65 67
e 65 68
e 65 300
e 65 301
e 66 99
e 66 331
e 66 364
e 66 552
e 66 580
e 66 584
e 66 748
e 67 301
e 67 781
e 68 300
e 68 301
e 69 458
e 69 498
e 69 663
e 69 680
e 70 71
e 70 72
e 70 141
e 70 144
e 70 146
e 71 141
e 71 144
e 71 152
e 71 287
e 71 689
e 71 756
e 72 141
e 72 146
e 72 470
e 73 142
e 73 147
e 73 151
e 73 468
e 73 662
e 73 683
e 73 742
e 73 744
e 74 75
e 74 569
e 74 656
e 74 667
e 75 78
e 75 88
e 75 469
e 75 491
e 75 656
e 75 689
e 76 81
e 76 320
e 76 688
e 76 742
e 77 287
e 77 472
e 77 746
e 78 88
e 78 497
e 78 689
e 78 741
e 79 80
e 79 83
e 79 84
e 79 89
e 79 97
e 79 153
e 79 307
e 79 747
e 80 84
e 80 89
e 80 143
e 80 682
e 81 320
e 81 559
e 81 571
e 81 657
e 81 688
e 82 97
e 82 469
e 82 492
e 83 97
e 83 307
e 83 338
e 83 492
e 83 493
e 84 143
e 84 307
e 84 317
e 85 476
e 85 491
e 85 656
e 86 88
e 86 469
e 86 497
e 86 741
e 86 762
e 87 317
e 87 496
e 87 558
e 87 559
e 87 661
e 88 469
e 88 741
e 90 91
e 90 92
e 90 93
e 91 92
e 91 93
e 91 94
e 92 93
e 92 94
e 93 94
e 93 443
e 93 444
e 93 445
e 93 477
e 93 479
e 93 665
e 93 672
e 94 318
e 94 319
e 94 435
e 94 436
e 94 477
e 94 500
e 94 502
e 94 669
e 95 96
e 95 311
e 95 706
e 95 707
e 96 508
e 96 706
e 96 707
e 97 150
e 97 153
e 97 469
e 97 492
e 98 337
e 98 576
e 98 581
e 98 582
e 98 737
e 98 745
e 99 331
e 99 574
e 99 575
e 99 583
e 99 584
e 99 586
e 100 102
e 100 693
e 100 695
e 101 103
e 101 405
e 101 407
e 101 408
e 101 691
e 101 692
e 101 694
e 102 103
e 102 487
e 102 690
e 102 695
e 102 707
e 103 311
e 103 408
e 103 690
e 103 694
e 103 707
e 104 105
e 104 121
e 104 234
e 104 252
e 104 612
e 104 613
e 104 614
e 105 252
e 105 525
e 105 612
e 106 107
e 106 108
e 106 110
e 106 349
e 107 108
e 107 333
e 107 344
e 107 345
e 107 536
e 107 696
e 107 697
e 107 819
e 107 821
e 108 751
e 108 819
e 109 110
e 109 346
e 109 357
e 110 161
e 110 346
e 110 347
e 110 349
e 110 441
e 111 112
e 111 125
e 111 126
e 111 128
e 111 129
e 112 127
e 112 128
e 112 129
e 113 114
e 113 116
e 113 261
e 113 297
e 113 299
e 113 594
e 114 115
e 114 116
e 114 261
e 114 441
e 114 724
e 115 261
e 115 263
e 115 266
e 116 295
e 116 589
e 116 594
e 116 724
e 117 118
e 117 120
e 117 285
e 117 375
e 117 430
e 118 285
e 118 375
e 118 426
e 118 427
e 118 429
e 118 618
e 118 619
e 119 120
e 119 424
e 119 425
e 119 426
e 119 430
e 120 430
e 121 122
e 121 123
e 121 124
e 121 234
e 121 252
e 121 264
e 121 266
e 122 123
e 122 234
e 122 264
e 122 544
e 122 545
e 123 234
e 124 251
e 124 252
e 124 266
e 125 126
e 125 127
e 125 129
e 125 277
e 125 488
e 125 686
e 126 128
e 126 316
e 126 791
e 127 128
e 127 129
e 127 600
e 127 602
e 127 686
e 128 134
e 130 131
e 130 400
e 130 627
e 130 629
e 130 634
e 130 635
e 130 638
e 131 389
e 131 629
e 131 634
e 132 133
e 132 632
e 132 638
e 133 146
e 133 390
e 133 401
e 133 632
e 133 638
e 133 756
e 133 757
e 134 600
e 134 601
e 134 603
e 134 605
e 135 601
e 135 604
e 136 138
e 136 139
e 136 270
e 136 623
e 136 666
e 136 703
e 136 815
e 137 138
e 137 229
e 137 535
e 137 703
e 138 562
e 138 565
e 138 703
e 139 151
e 139 270
e 139 468
e 139 474
e 139 623
e 140 148
e 140 149
e 140 679
e 140 682
e 141 152
e 141 467
e 141 470
e 142 662
e 142 663
e 142 677
e 142 742
e 143 317
e 143 496
e 143 659
e 143 676
e 143 682
e 144 146
e 144 756
e 145 149
e 145 163
e 145 164
e 145 682
e 145 780
e 146 470
e 146 632
e 146 634
e 146 637
e 146 756
e 147 148
e 147 468
e 147 475
e 147 660
e 147 679
e 147 683
e 148 149
e 148 293
e 148 468
e 148 474
e 148 679
e 149 293
e 149 682
e 150 153
e 150 440
e 150 469
e 150 762
e 151 468
e 151 631
e 151 636
e 151 662
e 151 680
e 151 801
e 152 467
e 152 473
e 152 678
e 152 680
e 153 442
e 153 747
e 154 155
e 154 229
e 154 231
e 154 333
e 154 334
e 154 530
e 154 533
e 155 334
e 156 157
e 156 241
e 156 243
e 156 267
e 157 240
e 157 241
e 157 243
e 157 267
e 158 159
e 158 238
e 158 241
e 158 462
e 160 161
e 160 357
e 161 357
e 161 441
e 161 442
e 161 747
e 162 164
e 162 237
e 163 164
e 163 165
e 163 780
e 164 165
e 164 237
e 165 237
e 166 237
e 167 168
e 167 223
e 167 709
e 167 712
e 168 223
e 168 225
e 168 702
e 168 708
e 168 709
e 168 710
e 168 711
e 168 712
e 169 174
e 169 181
e 169 185
e 169 191
e 169 204
e 170 171
e 170 177
e 170 179
e 170 784
e 170 787
e 171 175
e 171 177
e 171 460
e 171 581
e 171 752
e 171 784
e 172 178
e 172 183
e 172 186
e 172 189
e 172 192
e 172 193
e 172 752
e 173 181
e 173 204
e 173 206
e 173 379
e 173 785
e 174 185
e 174 187
e 174 188
e 174 191
e 174 786
e 174 787
e 175 581
e 175 784
e 176 180
e 176 188
e 176 191
e 176 200
e 176 209
e 176 210
e 177 179
e 177 208
e 177 460
e 178 196
e 178 197
e 178 203
e 179 187
e 179 201
e 179 208
e 179 787
e 180 184
e 180 189
e 180 195
e 180 200
e 180 210
e 181 185
e 181 377
e 181 786
e 182 193
e 182 202
e 182 752
e 183 184
e 183 207
e 183 460
e 183 752
e 184 189
e 184 195
e 184 207
e 185 786
e 186 189
e 186 190
e 186 192
e 186 210
e 186 783
e 187 188
e 187 195
e 187 200
e 187 787
e 188 191
e 188 200
e 189 210
e 190 192
e 190 204
e 190 783
e 191 209
e 191 783
e 192 203
e 192 204
e 193 196
e 193 202
e 193 727
e 193 752
e 194 197
e 194 199
e 194 203
e 194 205
e 194 206
e 194 459
e 194 785
e 195 200
e 195 201
e 196 197
e 196 459
e 196 727
e 196 782
e 197 203
e 197 459
e 198 199
e 198 459
e 198 726
e 199 459
e 199 785
e 201 207
e 201 208
e 202 579
e 202 727
e 202 752
e 203 204
e 203 206
e 204 206
e 204 783
e 205 206
e 205 785
e 207 460
e 208 460
e 209 210
e 209 783
e 210 783
e 211 235
e 211 403
e 211 404
e 211 454
e 211 484
e 211 816
e 211 817
e 212 250
e 212 254
e 212 413
e 212 414
e 212 415
e 212 416
e 213 214
e 213 249
e 213 254
e 213 415
e 213 416
e 214 254
e 214 523
e 214 526
e 215 216
e 215 386
e 215 387
e 215 813
e 216 813
e 217 247
e 217 250
e 217 254
e 218 219
e 218 652
e 218 653
e 219 646
e 219 647
e 219 653
e 219 790
e 220 222
e 220 281
e 220 332
e 220 335
e 220 583
e 220 584
e 220 586
e 221 324
e 221 332
e 221 336
e 221 573
e 221 574
e 221 575
e 221 583
e 222 584
e 222 748
e 223 224
e 223 225
e 223 226
e 223 227
e 223 228
e 224 228
e 224 341
e 224 504
e 224 709
e 225 228
e 225 422
e 225 431
e 225 453
e 225 710
e 226 227
e 226 228
e 227 228
e 228 513
e 229 230
e 229 231
e 229 232
e 229 233
e 229 530
e 229 535
e 229 703
e 230 232
e 230 233
e 231 233
e 231 342
e 231 343
e 231 533
e 231 534
e 232 233
e 232 535
e 233 534
e 233 535
e 234 376
e 234 377
e 234 545
e 234 610
e 234 613
e 235 236
e 235 403
e 235 816
e 235 817
e 236 278
e 236 403
e 238 239
e 238 241
e 238 242
e 238 244
e 238 245
e 238 462
e 239 242
e 239 420
e 239 431
e 240 241
e 240 243
e 241 243
e 241 267
e 242 244
e 242 245
e 244 245
e 246 382
e 246 383
e 246 521
e 246 527
e 246 529
e 247 254
e 247 524
e 247 525
e 248 249
e 248 250
e 248 253
e 248 410
e 248 411
e 248 412
e 249 253
e 249 410
e 249 414
e 249 415
e 250 254
e 250 412
e 250 413
e 251 252
e 251 263
e 251 266
e 251 382
e 251 383
e 251 521
e 251 522
e 251 749
e 252 383
e 252 525
e 254 524
e 254 529
e 255 256
e 255 258
e 255 259
e 255 260
e 255 319
e 255 384
e 255 434
e 255 801
e 256 258
e 256 259
e 256 260
e 257 258
e 257 568
e 257 588
e 258 260
e 258 568
e 258 588
e 258 625
e 258 626
e 258 630
e 258 801
e 259 260
e 260 289
e 260 290
e 260 434
e 260 452
e 260 626
e 261 264
e 261 266
e 261 299
e 261 540
e 261 541
e 261 542
e 261 544
e 262 264
e 263 265
e 263 266
e 263 749
e 264 266
e 264 544
e 265 266
e 270 474
e 271 272
e 271 273
e 271 274
e 271 554
e 271 555
e 271 820
e 272 274
e 272 546
e 272 547
e 272 554
e 273 274
e 274 547
e 274 820
e 275 276
e 275 277
e 275 488
e 275 648
e 275 706
e 276 277
e 276 706
e 277 298
e 277 488
e 277 686
e 277 687
e 278 279
e 278 403
e 278 409
e 278 520
e 279 312
e 279 403
e 279 406
e 279 407
e 279 408
e 279 409
e 279 517
e 280 282
e 280 288
e 280 321
e 280 328
e 280 329
e 280 330
e 280 339
e 281 321
e 281 322
e 281 335
e 282 288
e 282 328
e 282 362
e 282 748
e 283 285
e 283 305
e 283 489
e 283 619
e 283 714
e 283 715
e 283 716
e 284 285
e 284 714
e 284 715
e 284 716
e 285 619
e 285 713
e 285 714
e 286 389
e 286 628
e 286 629
e 286 637
e 287 471
e 287 472
e 287 473
e 287 570
e 287 689
e 287 746
e 288 292
e 289 290
e 289 291
e 289 626
e 290 291
e 290 452
e 290 654
e 290 655
e 290 699
e 290 701
e 290 709
e 291 504
e 291 626
e 291 627
e 291 709
e 292 748
e 293 474
e 293 780
e 294 295
e 294 298
e 294 590
e 294 591
e 294 592
e 294 721
e 295 589
e 295 590
e 295 722
e 295 723
e 295 724
e 296 297
e 296 299
e 296 591
e 296 593
e 296 595
e 296 596
e 296 598
e 296 599
e 297 299
e 297 593
e 297 594
e 297 595
e 297 599
e 298 299
e 298 540
e 298 545
e 298 592
e 298 687
e 298 721
e 299 540
e 299 591
e 299 592
e 300 301
e 300 510
e 300 511
e 300 789
e 301 302
e 301 781
e 301 789
e 302 509
e 302 510
e 302 781
e 302 789
e 303 304
e 303 305
e 303 531
e 303 549
e 303 551
e 303 739
e 304 333
e 304 531
e 304 549
e 304 550
e 304 698
e 305 489
e 305 619
e 305 739
e 306 419
e 306 437
e 306 438
e 306 537
e 307 317
e 307 493
e 308 328
e 308 329
e 308 330
e 308 363
e 309 310
e 309 311
e 309 312
e 309 518
e 309 519
e 310 311
e 310 518
e 310 648
e 310 706
e 311 312
e 311 408
e 311 706
e 311 707
e 312 408
e 312 517
e 312 519
e 313 314
e 313 554
e 313 555
e 314 554
e 314 556
e 314 557
e 315 316
e 315 488
e 315 647
e 315 648
e 315 790
e 315 791
e 316 488
e 316 791
e 317 380
e 317 493
e 317 496
e 317 558
e 318 319
e 318 434
e 318 436
e 319 384
e 319 434
e 319 435
e 320 571
e 320 656
e 320 667
e 320 742
e 321 322
e 321 339
e 321 572
e 321 577
e 322 323
e 322 324
e 322 325
e 322 335
e 322 577
e 323 324
e 323 325
e 323 577
e 324 325
e 324 332
e 324 335
e 326 327
e 326 339
e 326 572
e 326 604
e 327 329
e 327 379
e 327 604
e 327 785
e 328 330
e 328 362
e 328 363
e 329 330
e 329 339
e 329 363
e 331 575
e 331 576
e 331 578
e 331 579
e 331 580
e 331 752
e 332 335
e 333 334
e 333 530
e 333 531
e 333 533
e 333 536
e 333 697
e 333 698
e 334 530
e 336 573
e 337 581
e 337 745
e 338 381
e 338 385
e 338 492
e 338 493
e 338 740
e 339 572
e 340 341
e 340 463
e 341 503
e 341 504
e 342 343
e 342 361
e 342 534
e 342 773
e 342 774
e 343 344
e 343 350
e 343 351
e 343 533
e 343 773
e 344 345
e 344 350
e 344 355
e 344 536
e 345 349
e 345 352
e 345 356
e 346 347
e 346 348
e 346 357
e 346 360
e 346 361
e 346 772
e 346 778
e 347 348
e 347 349
e 347 352
e 348 352
e 348 776
e 350 351
e 350 355
e 350 359
e 351 353
e 351 358
e 351 359
e 351 773
e 351 775
e 352 356
e 352 776
e 353 774
e 353 775
e 353 777
e 354 360
e 354 772
e 354 777
e 355 356
e 355 359
e 356 359
e 356 775
e 356 776
e 357 361
e 358 359
e 358 775
e 359 775
e 360 361
e 360 772
e 360 774
e 360 777
e 361 774
e 362 552
e 362 585
e 363 585
e 364 552
e 364 580
e 364 585
e 365 366
e 365 372
e 365 463
e 365 465
e 365 560
e 365 561
e 365 719
e 366 462
e 366 464
e 366 561
e 366 719
e 366 732
e 367 368
e 367 369
e 367 370
e 367 718
e 368 717
e 368 718
e 368 732
e 368 809
e 369 370
e 369 373
e 369 374
e 369 463
e 369 464
e 369 718
e 369 809
e 370 809
e 371 372
e 371 373
e 371 374
e 371 463
e 371 465
e 371 733
e 371 792
e 371 803
e 372 463
e 372 465
e 373 374
e 373 463
e 374 803
e 374 809
e 375 427
e 375 428
e 375 430
e 376 377
e 376 378
e 376 379
e 376 545
e 376 602
e 376 686
e 376 687
e 377 378
e 377 379
e 377 610
e 377 786
e 378 379
e 379 602
e 379 604
e 379 785
e 380 493
e 380 494
e 380 558
e 380 740
e 381 385
e 381 469
e 381 494
e 381 740
e 382 383
e 382 521
e 383 524
e 383 529
e 384 435
e 384 477
e 384 624
e 384 801
e 385 469
e 385 492
e 386 387
e 386 388
e 386 486
e 386 505
e 386 644
e 386 645
e 387 505
e 387 508
e 387 706
e 387 813
e 388 486
e 388 644
e 389 629
e 389 634
e 389 637
e 390 392
e 390 401
e 390 644
e 390 757
e 391 396
e 391 753
e 392 393
e 392 399
e 392 400
e 392 401
e 393 394
e 393 395
e 393 399
e 393 400
e 393 627
e 394 395
e 394 396
e 394 503
e 394 627
e 395 397
e 395 398
e 395 399
e 397 399
e 397 753
e 397 754
e 398 753
e 399 754
e 400 401
e 400 627
e 400 638
e 401 638
e 402 403
e 402 404
e 402 405
e 402 463
e 402 560
e 402 794
e 403 404
e 403 405
e 403 407
e 404 454
e 404 560
e 404 793
e 404 794
e 405 407
e 405 692
e 406 409
e 406 517
e 407 408
e 409 517
e 409 520
e 410 411
e 410 413
e 410 414
e 411 412
e 411 413
e 412 413
e 413 414
e 414 415
e 415 416
e 417 418
e 417 419
e 417 420
e 417 422
e 417 431
e 418 420
e 418 432
e 418 537
e 419 422
e 419 432
e 419 437
e 419 537
e 420 431
e 421 423
e 421 432
e 421 433
e 421 437
e 421 539
e 422 431
e 422 453
e 422 538
e 422 710
e 423 432
e 423 537
e 423 539
e 424 426
e 424 428
e 424 430
e 425 426
e 425 443
e 425 608
e 425 671
e 425 675
e 426 428
e 426 429
e 426 532
e 426 608
e 426 618
e 427 428
e 428 430
e 429 618
e 431 453
e 432 437
e 432 537
e 433 439
e 433 537
e 433 539
e 434 436
e 434 452
e 434 500
e 435 477
e 436 500
e 436 502
e 437 438
e 437 439
e 438 439
e 438 537
e 439 537
e 440 442
e 440 724
e 440 725
e 440 730
e 440 762
e 441 442
e 441 724
e 442 724
e 442 747
e 443 444
e 443 446
e 443 447
e 443 608
e 443 665
e 443 671
e 443 672
e 444 445
e 444 447
e 445 446
e 445 447
e 445 665
e 446 447
e 446 665
e 448 449
e 448 450
e 448 655
e 448 702
e 449 450
e 449 451
e 449 654
e 449 655
e 450 451
e 450 452
e 451 452
e 451 654
e 452 654
e 454 456
e 454 484
e 454 560
e 454 561
e 454 563
e 454 606
e 455 456
e 455 480
e 455 481
e 455 483
e 455 561
e 455 564
e 455 567
e 456 480
e 456 563
e 456 567
e 457 561
e 457 564
e 457 566
e 457 640
e 458 471
e 458 498
e 458 680
e 458 734
e 459 726
e 459 782
e 460 752
e 461 489
e 461 490
e 461 509
e 461 511
e 461 512
e 461 714
e 462 464
e 462 561
e 463 464
e 463 513
e 463 560
e 464 513
e 464 718
e 464 732
e 465 719
e 465 732
e 465 792
e 466 467
e 466 470
e 466 633
e 466 636
e 466 678
e 466 680
e 467 470
e 467 678
e 469 491
e 469 492
e 469 494
e 469 495
e 469 762
e 470 634
e 471 472
e 471 570
e 471 680
e 472 473
e 472 680
e 472 746
e 473 680
e 473 746
e 475 660
e 475 679
e 475 682
e 476 491
e 476 495
e 476 558
e 476 607
e 476 656
e 477 478
e 477 479
e 477 624
e 478 479
e 479 665
e 479 666
e 480 481
e 480 483
e 480 484
e 481 482
e 481 483
e 484 485
e 486 487
e 486 505
e 486 506
e 486 507
e 487 505
e 487 507
e 487 508
e 487 695
e 487 707
e 488 648
e 489 490
e 489 509
e 489 739
e 491 495
e 491 656
e 493 740
e 494 495
e 494 558
e 495 558
e 496 661
e 497 689
e 497 741
e 497 762
e 498 663
e 498 664
e 499 500
e 500 501
e 500 502
e 500 669
e 500 675
e 503 504
e 503 627
e 504 627
e 504 709
e 505 506
e 505 508
e 506 507
e 508 706
e 509 510
e 509 512
e 509 556
e 509 736
e 509 739
e 510 511
e 510 512
e 510 789
e 511 512
e 513 515
e 514 516
e 514 751
e 514 818
e 514 819
e 514 822
e 516 818
e 516 822
e 517 518
e 517 519
e 517 520
e 518 519
e 518 648
e 518 650
e 518 652
e 521 522
e 522 749
e 523 526
e 523 527
e 524 525
e 524 529
e 526 528
e 526 529
e 527 528
e 527 529
e 528 529
e 530 531
e 530 617
e 530 703
e 530 705
e 532 608
e 532 617
e 532 618
e 532 620
e 532 705
e 533 536
e 534 535
e 537 538
e 537 539
e 537 702
e 538 702
e 538 710
e 540 541
e 540 545
e 541 542
e 541 543
e 541 545
e 542 543
e 542 544
e 543 544
e 543 545
e 544 545
e 545 687
e 546 547
e 546 548
e 546 550
e 546 554
e 546 736
e 547 550
e 547 696
e 547 698
e 547 820
e 547 821
e 548 550
e 549 550
e 549 551
e 549 553
e 550 553
e 550 698
e 550 736
e 550 738
e 551 553
e 551 738
e 551 739
e 552 585
e 552 748
e 553 738
e 554 555
e 554 556
e 554 736
e 556 557
e 556 736
e 558 559
e 558 607
e 559 607
e 559 657
e 559 661
e 559 681
e 560 561
e 561 564
e 561 606
e 561 640
e 562 565
e 563 566
e 563 567
e 563 606
e 564 566
e 564 567
e 566 567
e 566 606
e 566 640
e 568 588
e 568 625
e 568 626
e 569 668
e 570 689
e 570 734
e 571 607
e 571 656
e 572 577
e 572 604
e 573 575
e 573 735
e 574 575
e 574 583
e 575 578
e 576 578
e 576 581
e 576 582
e 576 752
e 578 582
e 578 735
e 579 580
e 579 585
e 579 587
e 579 752
e 580 585
e 581 752
e 582 737
e 583 586
e 584 586
e 584 748
e 585 587
e 587 726
e 587 727
e 588 626
e 589 590
e 589 594
e 589 597
e 589 599
e 590 591
e 590 596
e 590 597
e 591 592
e 591 596
e 593 595
e 593 599
e 594 599
e 596 597
e 596 598
e 597 598
e 597 599
e 598 599
e 600 602
e 600 605
e 601 603
e 601 604
e 602 603
e 602 604
e 602 605
e 602 686
e 603 604
e 603 605
e 606 640
e 608 665
e 608 704
e 609 611
e 609 615
e 610 611
e 610 613
e 610 614
e 610 616
e 610 786
e 610 788
e 611 616
e 611 788
e 612 614
e 613 614
e 614 616
e 617 620
e 617 705
e 618 619
e 621 643
e 621 729
e 621 764
e 621 767
e 621 770
e 622 728
e 622 731
e 622 755
e 622 759
e 622 762
e 622 768
e 623 797
e 623 801
e 623 802
e 624 798
e 624 801
e 624 804
e 625 626
e 625 627
e 625 630
e 625 635
e 626 627
e 628 629
e 628 632
e 628 637
e 628 638
e 629 638
e 630 631
e 630 635
e 630 636
e 630 800
e 630 801
e 631 636
e 631 801
e 632 637
e 633 634
e 633 636
e 633 639
e 634 635
e 634 637
e 634 639
e 635 636
e 635 639
e 636 639
e 636 680
e 641 643
e 641 759
e 641 766
e 641 768
e 642 728
e 642 731
e 642 762
e 642 766
e 642 769
e 643 767
e 643 770
e 644 645
e 644 757
e 644 765
e 644 771
e 645 761
e 645 763
e 645 765
e 646 647
e 646 649
e 646 651
e 646 653
e 647 648
e 647 649
e 647 650
e 647 790
e 648 650
e 648 706
e 649 650
e 649 651
e 650 651
e 650 652
e 651 652
e 651 653
e 652 653
e 654 655
e 655 699
e 655 702
e 656 667
e 657 658
e 657 681
e 657 688
e 658 659
e 658 681
e 658 685
e 659 660
e 659 676
e 659 681
e 659 682
e 659 685
e 660 682
e 660 683
e 660 684
e 661 676
e 661 681
e 662 663
e 662 680
e 663 664
e 663 677
e 663 680
e 664 677
e 665 666
e 665 703
e 665 704
e 666 703
e 666 796
e 668 689
e 668 734
e 669 670
e 669 672
e 669 675
e 670 672
e 670 673
e 670 675
e 671 672
e 671 674
e 671 675
e 672 673
e 672 674
e 673 674
e 673 675
e 674 675
e 676 681
e 677 742
e 678 680
e 683 684
e 683 743
e 683 744
e 684 685
e 684 688
e 684 743
e 685 688
e 686 687
e 689 734
e 689 755
e 689 756
e 690 693
e 690 694
e 691 692
e 691 693
e 691 694
e 692 693
e 692 695
e 693 695
e 696 697
e 696 698
e 697 698
e 699 700
e 699 701
e 699 702
e 700 701
e 700 702
e 701 702
e 701 709
e 702 710
e 703 704
e 703 705
e 704 705
e 706 813
e 708 711
e 708 712
e 711 712
e 713 714
e 714 715
e 715 716
e 717 732
e 717 733
e 717 792
e 717 809
e 718 732
e 719 732
e 720 721
e 720 722
e 720 725
e 720 760
e 720 761
e 721 722
e 722 723
e 722 725
e 723 724
e 723 725
e 724 725
e 725 729
e 725 730
e 725 758
e 725 764
e 726 727
e 726 782
e 727 782
e 728 731
e 728 762
e 729 730
e 729 764
e 729 767
e 730 762
e 730 767
e 730 769
e 731 766
e 732 792
e 733 792
e 733 803
e 733 809
e 736 738
e 736 739
e 737 745
e 738 739
e 742 743
e 742 744
e 743 744
e 749 750
e 749 751
e 750 751
e 751 819
e 753 754
e 755 756
e 755 759
e 755 762
e 755 771
e 756 757
e 756 771
e 757 771
e 758 760
e 758 763
e 758 764
e 759 768
e 759 770
e 759 771
e 760 761
e 760 763
e 761 763
e 762 769
e 763 765
e 764 765
e 764 770
e 765 770
e 765 771
e 766 767
e 766 768
e 766 769
e 767 769
e 770 771
e 772 777
e 772 778
e 773 774
e 774 777
e 775 776
e 775 779
e 776 778
e 776 779
e 777 778
e 777 779
e 778 779
e 784 787
e 784 788
e 786 787
e 786 788
e 787 788
e 790 791
e 793 794
e 795 799
e 795 806
e 795 807
e 795 815
e 796 807
e 796 808
e 796 812
e 797 802
e 798 804
e 798 814
e 799 802
e 800 801
e 803 809
e 804 805
e 804 811
e 805 806
e 805 808
e 805 810
e 806 807
e 807 808
e 807 815
e 808 810
e 808 812
e 810 811
e 810 812
e 811 812
e 811 814
e 812 814
e 816 817
e 818 819
e 818 821
e 818 822
e 819 821
e 819 822
e 820 821
c k 4
